[INPUT]
prmtopfile       = data/ake/ake.top
ambcrdfile       = data/ake/ake.rst
ambreffile       = data/ake/ake.crd
rstfile          = data/ake/restart.rst

[OUTPUT]

[ENERGY]
forcefield       = AMBER
electrostatic    = PME
switchdist       = 10.0
cutoffdist       = 10.0
pairlistdist     = 12.0
table_density    = 20.0
pme_alpha        = 0.34
pme_ngrid_x      = 72
pme_ngrid_y      = 72
pme_ngrid_z      = 72
pme_nspline      = 4
nonbond_kernel   = GPU
water_model      = WAT

[DYNAMICS]
integrator       = VVER
iseed            = 314159
nsteps           = 100000
timestep         = 0.004
hydrogen_mr      = YES
hmr_target       = all
hmr_ratio        = 3.0
eneout_period    = 1000
nbupdate_period  = 10

[CONSTRAINTS]
rigid_bond       = YES
water_model      = WAT
hydrogen_mass_upper_bound = 3.3

[ENSEMBLE]
ensemble         = NVE
tpcontrol        = NO
temperature      = 300
group_tp         = YES

[BOUNDARY]
type             = PBC
domain_x         = 1
domain_y         = 1
domain_z         = 1

