[INPUT]
topfile                   = data/dppc/top_all36_lipid.rtf
parfile                   = data/dppc/par_all36_lipid.prm
strfile                   = data/dppc/toppar_water_ions.str
rstfile                   = data/dppc/rst
psffile                   = data/dppc/dppc.psf
pdbfile                   = data/dppc/dppc.pdb

[ENERGY]
forcefield                = CHARMM
electrostatic             = PME
switchdist                = 10.0
cutoffdist                = 12.0
pairlistdist              = 13.5
table_density             = 20.0
pme_alpha                 = 0.34
pme_ngrid_x               = 72
pme_ngrid_y               = 72
pme_ngrid_z               = 72
pme_nspline               = 4

[DYNAMICS]
integrator                = VVER
iseed                     = 314159
nsteps                    = 100000
timestep                  = 0.004
hydrogen_mr               = YES
hmr_target                = all
hmr_ratio                 = 3.0
eneout_period             = 1000
thermostat_period         = 5

[CONSTRAINTS]
rigid_bond                = YES
cons_scheme               = MSHAKE-SETTLE
iter_solute               = 2
hydrogen_mass_upper_bound = 3.3

[ENSEMBLE]
ensemble                  = NVT
tpcontrol                 = BUSSI
temperature               = 300

[BOUNDARY]
type                      = PBC
domain_x                  = 1
domain_y                  = 1
domain_z                  = 1
