[INPUT]
topfile          = data/dppc/top_all36_lipid.rtf
parfile          = data/dppc/par_all36_lipid.prm
strfile          = data/dppc/toppar_water_ions.str
rstfile          = data/dppc/rst
psffile          = data/dppc/dppc.psf
pdbfile          = data/dppc/dppc.pdb

[OUTPUT]

[ENERGY]
forcefield       = CHARMM
electrostatic    = PME
switchdist       = 10.0
cutoffdist       = 12.0
pairlistdist     = 13.5
table_density    = 20.0
pme_alpha        = 0.34
pme_ngrid_x      = 72
pme_ngrid_y      = 72
pme_ngrid_z      = 72
pme_nspline      = 4
nonbond_kernel   = GPU

[DYNAMICS]
integrator       = VVER
iseed            = 314159
nsteps           = 100000
timestep         = 0.004
hydrogen_mr      = YES
hmr_target       = all
hmr_ratio        = 3.0
eneout_period    = 1000
nbupdate_period  = 10

[CONSTRAINTS]
rigid_bond       = YES
hydrogen_mass_upper_bound = 3.3

[ENSEMBLE]
ensemble         = NVE
tpcontrol        = NO
temperature      = 300
group_tp         = YES

[BOUNDARY]
type             = PBC
domain_x         = 1
domain_y         = 1
domain_z         = 1
