# Generated by generate_inputs.py
# benchmark-system: ake
# native-model: native_archive_amber_ake_3site
# forcefield-family: AMBER
# forcefield: archive-AMBER
# water-model: TIP3P
# solvent: explicit
# source: data/variants/ake/native_archive_amber_ake_3site/variant.json
# execution-profile: matched
# post-neutralization-charge-e: -2.558842699335387e-07
# neutralization-method: none_required
# ensemble: nve
# dt-fs: 4
# nsteps: 100000
# output-period-steps: 1000
# thermostat-period-steps: 5
# barostat-period-steps: 5
# baroscale-period-steps: 5
# temperature-k: 300
# pressure-atm: 1
# tau-t-ps: 5
# tau-p-ps: 5
# random-seed: 314159
# cutoff-angstrom: 9
# pair-list-skin-angstrom: 2
# vdw-switch-semantic: none
# hmr-authority: native-topology heavy-atom mass transfer; rigid waters excluded
# hmr-hydrogen-mass-dalton: 3.024
# hmr-ratio: 3

[INPUT]
prmtopfile                = data/variants/ake/native_archive_amber_ake_3site/system.prmtop
ambcrdfile                = data/variants/ake/native_archive_amber_ake_3site/system.inpcrd

[ENERGY]
forcefield                = AMBER
electrostatic             = PME
switchdist                = 9
cutoffdist                = 9
pairlistdist              = 11
pme_nspline               = 4
pme_alpha_tol             = 1.0e-5
pme_ngrid_x               = 72
pme_ngrid_y               = 72
pme_ngrid_z               = 72

[DYNAMICS]
integrator                = VVER
iseed                     = 314159
stoptr_period             = 0
nsteps                    = 100000
timestep                  = 0.004
eneout_period             = 1000
crdout_period             = 0
rstout_period             = 0
hydrogen_mr               = YES
hmr_target                = solute
hmr_ratio                 = 3

[CONSTRAINTS]
rigid_bond                = YES
cons_scheme               = MSHAKE-SETTLE
iter_solute               = 2
hydrogen_mass_upper_bound = 3.3

[ENSEMBLE]
ensemble                  = NVE
thermostat                = NONE
barostat                  = NONE
temperature               = 300

[BOUNDARY]
type                      = PBC
box_size_x                = 86.4941345
box_size_y                = 83.2631699
box_size_z                = 87.1693322
domain_x                  = 1
domain_y                  = 1
domain_z                  = 1
