# Generated by generate_inputs.py
# benchmark-system: apoa1
# native-model: native_charmm27_mtip3p
# forcefield-family: CHARMM
# forcefield: CHARMM27
# water-model: mTIP3P
# solvent: explicit
# source: data/variants/apoa1/native_charmm27_mtip3p/variant.json
# execution-profile: matched
# post-neutralization-charge-e: -4.891920202254596e-15
# neutralization-method: replace_waters
# ensemble: nvt
# dt-fs: 4
# nsteps: 100000
# output-period-steps: 1000
# thermostat-period-steps: 5
# barostat-period-steps: 5
# baroscale-period-steps: 5
# temperature-k: 300
# pressure-atm: 1
# tau-t-ps: 5
# tau-p-ps: 5
# random-seed: 314159
# cutoff-angstrom: 12
# pair-list-skin-angstrom: 2
# vdw-switch-semantic: potential
# hmr-authority: native-topology heavy-atom mass transfer; rigid waters excluded
# hmr-hydrogen-mass-dalton: 3.024
# hmr-ratio: 3

[INPUT]
topfile                   = data/variants/apoa1/native_charmm27_mtip3p/top_all27_prot_lipid.rtf
parfile                   = data/variants/apoa1/native_charmm27_mtip3p/par_all27_prot_lipid.prm
psffile                   = data/variants/apoa1/native_charmm27_mtip3p/system.psf
crdfile                   = data/variants/apoa1/native_charmm27_mtip3p/system.crd

[ENERGY]
forcefield                = CHARMM
electrostatic             = PME
switchdist                = 10
cutoffdist                = 12
pairlistdist              = 14
vdw_force_switch          = NO
pme_nspline               = 4
pme_alpha_tol             = 1.0e-5
pme_ngrid_x               = 80
pme_ngrid_y               = 80
pme_ngrid_z               = 64

[DYNAMICS]
integrator                = VVER
iseed                     = 314159
stoptr_period             = 0
nsteps                    = 100000
timestep                  = 0.004
eneout_period             = 1000
crdout_period             = 0
rstout_period             = 0
hydrogen_mr               = YES
hmr_target                = solute
hmr_ratio                 = 3
thermostat_period         = 5

[CONSTRAINTS]
rigid_bond                = YES
cons_scheme               = MSHAKE-SETTLE
iter_solute               = 2
hydrogen_mass_upper_bound = 3.3

[ENSEMBLE]
ensemble                  = NVT
thermostat                = BUSSI
barostat                  = NONE
temperature               = 300
tau_t                     = 5

[BOUNDARY]
type                      = PBC
box_size_x                = 107.49788665771484
box_size_y                = 107.49788665771484
box_size_z                = 76.78421020507812
domain_x                  = 1
domain_y                  = 1
domain_z                  = 1
