# Generated by generate_inputs.py
# benchmark-system: stmv
# native-model: native_archive_amber_stmv_3site
# forcefield-family: AMBER
# forcefield: archive-AMBER
# water-model: TIP3P
# solvent: explicit
# source: data/variants/stmv/native_archive_amber_stmv_3site/variant.json
# execution-profile: matched
# post-neutralization-charge-e: -5.493270998041359e-07
# neutralization-method: none_required
# ensemble: npt
# dt-fs: 4
# nsteps: 100000
# output-period-steps: 1000
# thermostat-period-steps: 5
# barostat-period-steps: 5
# baroscale-period-steps: 5
# temperature-k: 300
# pressure-atm: 1
# tau-t-ps: 5
# tau-p-ps: 5
# random-seed: 314159
# cutoff-angstrom: 9
# pair-list-skin-angstrom: 2
# vdw-switch-semantic: none
# hmr-authority: native-topology heavy-atom mass transfer; rigid waters excluded
# hmr-hydrogen-mass-dalton: 3.024
# hmr-ratio: 3

[INPUT]
prmtopfile                = data/variants/stmv/native_archive_amber_stmv_3site/system.prmtop
ambcrdfile                = data/variants/stmv/native_archive_amber_stmv_3site/system.inpcrd

[ENERGY]
forcefield                = AMBER
electrostatic             = PME
switchdist                = 9
cutoffdist                = 9
pairlistdist              = 11
pme_nspline               = 4
pme_alpha_tol             = 1.0e-5

[DYNAMICS]
integrator                = VVER
iseed                     = 314159
stoptr_period             = 0
nsteps                    = 100000
timestep                  = 0.004
eneout_period             = 1000
crdout_period             = 0
rstout_period             = 0
hydrogen_mr               = YES
hmr_target                = solute
hmr_ratio                 = 3
thermostat_period         = 5
barostat_period           = 5
baroscale_period          = 5

[CONSTRAINTS]
rigid_bond                = YES
cons_scheme               = MSHAKE-SETTLE
iter_solute               = 2
hydrogen_mass_upper_bound = 3.3

[ENSEMBLE]
ensemble                  = NPT
thermostat                = BUSSI
barostat                  = LANGEVIN
temperature               = 300
tau_t                     = 5
pressure                  = 1
tau_p                     = 5

[BOUNDARY]
type                      = PBC
box_size_x                = 221.1723142
box_size_y                = 223.1988809
box_size_z                = 224.4925841
